NAME: test78
TYPE: TSP
DIMENSION: 15
EDGE_WEIGHT_TYPE: EUC_2D
NODE_COORD_SECTION
1 11.094509157046339 50.07268194852186
2 96.70168577947192 5.088332206885116
3 48.61731964687701 45.17369874513633
4 78.49910009539212 81.03009622235365
5 29.273308396674956 70.89922542199707
6 29.278889527023345 68.2223286204336
7 15.290692770094772 69.32944295208235
8 29.996717330269572 80.30993094392319
9 14.434043822416886 74.87206189062393
10 97.00984262213176 47.05696671707553
11 85.1703423164274 76.67900755542396
12 37.42562201963601 33.628646740601766
13 80.71072811541401 11.417268926763413
14 88.67715114098705 52.26123922666148
15 0.288261763800457 72.67888318016912
EOF
